1062199
73,36,79,98,67,34,41,96,71,62,12,92,61,5,74,68,40,17,55,30,59,31,19,20,95,29,76,9,48,54,43,90,52,7,88,84,2,4,63,1,26,82,87,49,35,37,75,86,44,85,80,91,83,21,42,23,18,11,16,25,93,39,28,78,50,77,24,94,46,56,8,32,65,72,51,64,53,97,58,89,70,33,27,45,66,81,57,60,14,15,10,22,13,38,6,3,47,0,69,73